50
18274

260 567
376 253
370 77
260 401
73 788
286 225
713 266
624 572
327 675
310 267
466 9
187 31
640 995
858 829
831 766
63 906
382 607
856 449
963 33
82 318
327 364
317 698
730 800
150 148
869 72
290 37
675 660
730 391
651 925
154 654
621 541
702 421
936 206
491 642
607 25
751 777
837 527
149 476
527 631
911 121
208 904
513 195
86 553
421 499
567 870
953 374
662 841
577 249
19 73
769 145
